(set-logic QF_S)
(declare-fun var0 () String)
(assert (str.in.re var0 (re.++ (re.+ (re.* (str.to.re "000"))) (re.++ (re.+ (re.+ (str.to.re "1"))) (re.++ (re.+ (re.union (str.to.re "22") (str.to.re "3"))) (re.++ (re.union (re.+ (str.to.re "4")) (re.+ (str.to.re "5"))) (re.++ (re.+ (re.union (str.to.re "6") (str.to.re "77"))) (re.++ (re.* (re.* (str.to.re "888"))) (re.++ (re.* (re.+ (str.to.re "9"))) (re.++ (re.* (re.+ (str.to.re "aaa"))) (re.++ (re.union (re.union (str.to.re "bbb") (str.to.re "cc")) (re.union (str.to.re "d") (str.to.re "e"))) (re.++ (re.+ (re.+ (str.to.re "ff"))) (re.++ (re.+ (re.union (str.to.re "ggg") (str.to.re "h"))) (re.++ (re.union (re.* (str.to.re "ii")) (re.* (str.to.re "jj"))) (re.++ (re.union (re.* (str.to.re "kk")) (re.* (str.to.re "lll"))) (re.++ (re.+ (re.+ (str.to.re "mmm"))) (re.++ (re.+ (re.+ (str.to.re "n"))) (re.++ (re.+ (re.* (str.to.re "o"))) (re.++ (re.+ (re.union (str.to.re "ppp") (str.to.re "qqq"))) (re.++ (re.union (re.union (str.to.re "rr") (str.to.re "sss")) (re.union (str.to.re "t") (str.to.re "uu"))) (re.++ (re.union (re.* (str.to.re "v")) (re.* (str.to.re "ww"))) (re.++ (re.+ (re.union (str.to.re "xxx") (str.to.re "yy"))) (re.++ (re.* (re.union (str.to.re "zz") (str.to.re "AA"))) (re.++ (re.+ (re.+ (str.to.re "BBB"))) (re.++ (re.union (re.+ (str.to.re "CC")) (re.+ (str.to.re "DDD"))) (re.++ (re.+ (re.* (str.to.re "EEE"))) (re.++ (re.* (re.union (str.to.re "FF") (str.to.re "GG"))) (re.++ (re.* (re.* (str.to.re "HHH"))) (re.++ (re.+ (re.* (str.to.re "I"))) (re.++ (re.+ (re.union (str.to.re "J") (str.to.re "KK"))) (re.++ (re.* (re.* (str.to.re "LL"))) (re.++ (re.union (re.+ (str.to.re "M")) (re.+ (str.to.re "N"))) (re.++ (re.+ (re.union (str.to.re "O") (str.to.re "PPP"))) (re.++ (re.union (re.* (str.to.re "QQ")) (re.* (str.to.re "RRR"))) (re.++ (re.+ (re.+ (str.to.re "SS"))) (re.++ (re.* (re.union (str.to.re "TTT") (str.to.re "UU"))) (re.++ (re.union (re.union (str.to.re "VVV") (str.to.re "WWW")) (re.union (str.to.re "XX") (str.to.re "YY"))) (re.++ (re.+ (re.* (str.to.re "ZZZ"))) (re.++ (re.union (re.* (str.to.re "!!")) (re.* (str.to.re """"))) (re.++ (re.union (re.union (str.to.re "###") (str.to.re "$$$")) (re.union (str.to.re "%%") (str.to.re "&&"))) (re.++ (re.union (re.union (str.to.re "''") (str.to.re "((")) (re.union (str.to.re "))") (str.to.re "**"))) (re.++ (re.* (re.union (str.to.re "+") (str.to.re ",,"))) (re.++ (re.+ (re.* (str.to.re "--"))) (re.++ (re.* (re.+ (str.to.re ".."))) (re.++ (re.* (re.union (str.to.re "//") (str.to.re "::"))) (re.++ (re.union (re.+ (str.to.re ";")) (re.+ (str.to.re "<<<"))) (re.++ (re.+ (re.+ (str.to.re "=="))) (re.union (re.* (str.to.re ">>>")) (re.* (str.to.re "??"))))))))))))))))))))))))))))))))))))))))))))))))))
(assert (not (str.in.re var0 (re.++ (re.union (re.* (str.to.re "00")) (re.* (str.to.re "1"))) (re.++ (re.union (re.* (str.to.re "222")) (re.* (str.to.re "3"))) (re.++ (re.union (re.+ (str.to.re "44")) (re.+ (str.to.re "55"))) (re.++ (re.* (re.union (str.to.re "66") (str.to.re "7"))) (re.++ (re.union (re.+ (str.to.re "8")) (re.+ (str.to.re "99"))) (re.++ (re.union (re.* (str.to.re "aa")) (re.* (str.to.re "bbb"))) (re.++ (re.union (re.* (str.to.re "cc")) (re.* (str.to.re "ddd"))) (re.++ (re.+ (re.union (str.to.re "eee") (str.to.re "ff"))) (re.++ (re.+ (re.* (str.to.re "g"))) (re.++ (re.+ (re.union (str.to.re "h") (str.to.re "ii"))) (re.++ (re.+ (re.* (str.to.re "j"))) (re.++ (re.+ (re.+ (str.to.re "kk"))) (re.++ (re.+ (re.+ (str.to.re "ll"))) (re.++ (re.+ (re.+ (str.to.re "mm"))) (re.++ (re.+ (re.+ (str.to.re "n"))) (re.++ (re.* (re.+ (str.to.re "ooo"))) (re.++ (re.+ (re.union (str.to.re "ppp") (str.to.re "qqq"))) (re.++ (re.+ (re.+ (str.to.re "r"))) (re.++ (re.+ (re.union (str.to.re "sss") (str.to.re "t"))) (re.++ (re.* (re.* (str.to.re "uu"))) (re.++ (re.* (re.* (str.to.re "vv"))) (re.++ (re.+ (re.* (str.to.re "ww"))) (re.++ (re.union (re.* (str.to.re "xxx")) (re.* (str.to.re "y"))) (re.++ (re.union (re.+ (str.to.re "zzz")) (re.+ (str.to.re "A"))) (re.++ (re.* (re.* (str.to.re "BB"))) (re.++ (re.union (re.+ (str.to.re "CCC")) (re.+ (str.to.re "D"))) (re.++ (re.+ (re.union (str.to.re "EEE") (str.to.re "FFF"))) (re.++ (re.+ (re.+ (str.to.re "G"))) (re.++ (re.* (re.union (str.to.re "HH") (str.to.re "II"))) (re.++ (re.* (re.union (str.to.re "JJ") (str.to.re "KK"))) (re.++ (re.* (re.+ (str.to.re "LL"))) (re.++ (re.+ (re.+ (str.to.re "MM"))) (re.++ (re.* (re.* (str.to.re "NNN"))) (re.++ (re.union (re.union (str.to.re "OO") (str.to.re "PP")) (re.union (str.to.re "QQ") (str.to.re "RR"))) (re.++ (re.* (re.union (str.to.re "SS") (str.to.re "TT"))) (re.++ (re.+ (re.+ (str.to.re "UU"))) (re.++ (re.* (re.union (str.to.re "V") (str.to.re "WW"))) (re.++ (re.* (re.+ (str.to.re "XX"))) (re.++ (re.union (re.union (str.to.re "Y") (str.to.re "ZZZ")) (re.union (str.to.re "!") (str.to.re """"""))) (re.++ (re.union (re.* (str.to.re "##")) (re.* (str.to.re "$"))) (re.++ (re.union (re.+ (str.to.re "%")) (re.+ (str.to.re "&"))) (re.++ (re.* (re.union (str.to.re "'") (str.to.re "((("))) (re.++ (re.+ (re.+ (str.to.re ")"))) (re.++ (re.union (re.union (str.to.re "*") (str.to.re "++")) (re.union (str.to.re ",,,") (str.to.re "-"))) (re.++ (re.* (re.* (str.to.re "."))) (re.+ (re.* (str.to.re "///")))))))))))))))))))))))))))))))))))))))))))))))))))
(check-sat)